\ LP format - for model browsing. Use MPS format to capture full model detail.
Minimize
  - 290 Y_0_1_0 - 1297 Y_0_2_0 - 1508 Y_0_3_0 - 1440 Y_0_4_0 - 221 Y_0_5_0
   - 400 Y_0_6_0 - 208 Y_0_7_0 - 338 Y_0_8_0 - 185 Y_0_9_0 - 514 Y_0_10_0
   - 925 Y_0_11_0 - 1017 Y_0_12_0 - 740 Y_0_13_0 - 661 Y_0_14_0
   - 1066 Y_0_15_0 - 1250 Y_0_16_0 - 361 Y_1_2_0 - 490 Y_1_3_0
   - 482 Y_1_4_0 - 193 Y_1_5_0 - 170 Y_1_6_0 - 250 Y_1_7_0 - 212 Y_1_8_0
   - 365 Y_1_9_0 - 256 Y_1_10_0 - 545 Y_1_11_0 - 641 Y_1_12_0
   - 530 Y_1_13_0 - 797 Y_1_14_0 - 904 Y_1_15_0 - 1024 Y_1_16_0
   - 53 Y_2_3_0 - 121 Y_2_4_0 - 820 Y_2_5_0 - 569 Y_2_6_0 - 953 Y_2_7_0
   - 725 Y_2_8_0 - 1220 Y_2_9_0 - 617 Y_2_10_0 - 754 Y_2_11_0
   - 850 Y_2_12_0 - 929 Y_2_13_0 - 1576 Y_2_14_0 - 1341 Y_2_15_0
   - 1385 Y_2_16_0 - 20 Y_3_4_0 - 1145 Y_3_5_0 - 884 Y_3_6_0 - 1300 Y_3_7_0
   - 1066 Y_3_8_0 - 1597 Y_3_9_0 - 970 Y_3_10_0 - 1189 Y_3_11_0
   - 1313 Y_3_12_0 - 1384 Y_3_13_0 - 2113 Y_3_14_0 - 1898 Y_3_15_0
   - 1962 Y_3_16_0 - 1205 Y_4_5_0 - 976 Y_4_6_0 - 1360 Y_4_7_0
   - 1154 Y_4_8_0 - 1649 Y_4_9_0 - 1090 Y_4_10_0 - 1381 Y_4_11_0
   - 1521 Y_4_12_0 - 1556 Y_4_13_0 - 2269 Y_4_14_0 - 2122 Y_4_15_0
   - 2210 Y_4_16_0 - 37 Y_5_6_0 - 5 Y_5_7_0 - 13 Y_5_8_0 - 40 Y_5_9_0
   - 65 Y_5_10_0 - 242 Y_5_11_0 - 290 Y_5_12_0 - 157 Y_5_13_0
   - 212 Y_5_14_0 - 349 Y_5_15_0 - 449 Y_5_16_0 - 64 Y_6_7_0 - 10 Y_6_8_0
   - 145 Y_6_9_0 - 10 Y_6_10_0 - 125 Y_6_11_0 - 169 Y_6_12_0 - 100 Y_6_13_0
   - 269 Y_6_14_0 - 290 Y_6_15_0 - 362 Y_6_16_0 - 26 Y_7_8_0 - 17 Y_7_9_0
   - 90 Y_7_10_0 - 269 Y_7_11_0 - 313 Y_7_12_0 - 164 Y_7_13_0
   - 173 Y_7_14_0 - 338 Y_7_15_0 - 442 Y_7_16_0 - 81 Y_8_9_0 - 20 Y_8_10_0
   - 145 Y_8_11_0 - 185 Y_8_12_0 - 90 Y_8_13_0 - 193 Y_8_14_0
   - 260 Y_8_15_0 - 340 Y_8_16_0 - 173 Y_9_10_0 - 370 Y_9_11_0
   - 410 Y_9_12_0 - 225 Y_9_13_0 - 148 Y_9_14_0 - 377 Y_9_15_0
   - 493 Y_9_16_0 - 65 Y_10_11_0 - 97 Y_10_12_0 - 50 Y_10_13_0
   - 221 Y_10_14_0 - 200 Y_10_15_0 - 256 Y_10_16_0 - 4 Y_11_12_0
   - 25 Y_11_13_0 - 234 Y_11_14_0 - 85 Y_11_15_0 - 97 Y_11_16_0
   - 29 Y_12_13_0 - 226 Y_12_14_0 - 61 Y_12_15_0 - 65 Y_12_16_0
   - 109 Y_13_14_0 - 50 Y_13_15_0 - 82 Y_13_16_0 - 97 Y_14_15_0
   - 157 Y_14_16_0 - 8 Y_15_16_0 - 290 Y_0_1_1 - 1297 Y_0_2_1
   - 1508 Y_0_3_1 - 1440 Y_0_4_1 - 221 Y_0_5_1 - 400 Y_0_6_1 - 208 Y_0_7_1
   - 338 Y_0_8_1 - 185 Y_0_9_1 - 514 Y_0_10_1 - 925 Y_0_11_1
   - 1017 Y_0_12_1 - 740 Y_0_13_1 - 661 Y_0_14_1 - 1066 Y_0_15_1
   - 1250 Y_0_16_1 - 361 Y_1_2_1 - 490 Y_1_3_1 - 482 Y_1_4_1 - 193 Y_1_5_1
   - 170 Y_1_6_1 - 250 Y_1_7_1 - 212 Y_1_8_1 - 365 Y_1_9_1 - 256 Y_1_10_1
   - 545 Y_1_11_1 - 641 Y_1_12_1 - 530 Y_1_13_1 - 797 Y_1_14_1
   - 904 Y_1_15_1 - 1024 Y_1_16_1 - 53 Y_2_3_1 - 121 Y_2_4_1 - 820 Y_2_5_1
   - 569 Y_2_6_1 - 953 Y_2_7_1 - 725 Y_2_8_1 - 1220 Y_2_9_1 - 617 Y_2_10_1
   - 754 Y_2_11_1 - 850 Y_2_12_1 - 929 Y_2_13_1 - 1576 Y_2_14_1
   - 1341 Y_2_15_1 - 1385 Y_2_16_1 - 20 Y_3_4_1 - 1145 Y_3_5_1
   - 884 Y_3_6_1 - 1300 Y_3_7_1 - 1066 Y_3_8_1 - 1597 Y_3_9_1
   - 970 Y_3_10_1 - 1189 Y_3_11_1 - 1313 Y_3_12_1 - 1384 Y_3_13_1
   - 2113 Y_3_14_1 - 1898 Y_3_15_1 - 1962 Y_3_16_1 - 1205 Y_4_5_1
   - 976 Y_4_6_1 - 1360 Y_4_7_1 - 1154 Y_4_8_1 - 1649 Y_4_9_1
   - 1090 Y_4_10_1 - 1381 Y_4_11_1 - 1521 Y_4_12_1 - 1556 Y_4_13_1
   - 2269 Y_4_14_1 - 2122 Y_4_15_1 - 2210 Y_4_16_1 - 37 Y_5_6_1 - 5 Y_5_7_1
   - 13 Y_5_8_1 - 40 Y_5_9_1 - 65 Y_5_10_1 - 242 Y_5_11_1 - 290 Y_5_12_1
   - 157 Y_5_13_1 - 212 Y_5_14_1 - 349 Y_5_15_1 - 449 Y_5_16_1 - 64 Y_6_7_1
   - 10 Y_6_8_1 - 145 Y_6_9_1 - 10 Y_6_10_1 - 125 Y_6_11_1 - 169 Y_6_12_1
   - 100 Y_6_13_1 - 269 Y_6_14_1 - 290 Y_6_15_1 - 362 Y_6_16_1 - 26 Y_7_8_1
   - 17 Y_7_9_1 - 90 Y_7_10_1 - 269 Y_7_11_1 - 313 Y_7_12_1 - 164 Y_7_13_1
   - 173 Y_7_14_1 - 338 Y_7_15_1 - 442 Y_7_16_1 - 81 Y_8_9_1 - 20 Y_8_10_1
   - 145 Y_8_11_1 - 185 Y_8_12_1 - 90 Y_8_13_1 - 193 Y_8_14_1
   - 260 Y_8_15_1 - 340 Y_8_16_1 - 173 Y_9_10_1 - 370 Y_9_11_1
   - 410 Y_9_12_1 - 225 Y_9_13_1 - 148 Y_9_14_1 - 377 Y_9_15_1
   - 493 Y_9_16_1 - 65 Y_10_11_1 - 97 Y_10_12_1 - 50 Y_10_13_1
   - 221 Y_10_14_1 - 200 Y_10_15_1 - 256 Y_10_16_1 - 4 Y_11_12_1
   - 25 Y_11_13_1 - 234 Y_11_14_1 - 85 Y_11_15_1 - 97 Y_11_16_1
   - 29 Y_12_13_1 - 226 Y_12_14_1 - 61 Y_12_15_1 - 65 Y_12_16_1
   - 109 Y_13_14_1 - 50 Y_13_15_1 - 82 Y_13_16_1 - 97 Y_14_15_1
   - 157 Y_14_16_1 - 8 Y_15_16_1 + 0 Z
Subject To
 X0: X_0 + X_0 = 1
 X1: X_1 + X_1 = 1
 X2: X_2 + X_2 = 1
 X3: X_3 + X_3 = 1
 X4: X_4 + X_4 = 1
 X5: X_5 + X_5 = 1
 X6: X_6 + X_6 = 1
 X7: X_7 + X_7 = 1
 X8: X_8 + X_8 = 1
 X9: X_9 + X_9 = 1
 X10: X_10 + X_10 = 1
 X11: X_11 + X_11 = 1
 X12: X_12 + X_12 = 1
 X13: X_13 + X_13 = 1
 X14: X_14 + X_14 = 1
 X15: X_15 + X_15 = 1
 X16: X_16 + X_16 = 1
 P0: X_0 + X_1 + X_2 + X_3 + X_4 + X_5 + X_6 + X_7 + X_8 + X_9 + X_10
   + X_11 + X_12 + X_13 + X_14 + X_15 + X_16 >= 8
 P1: X_0 + X_1 + X_2 + X_3 + X_4 + X_5 + X_6 + X_7 + X_8 + X_9 + X_10
   + X_11 + X_12 + X_13 + X_14 + X_15 + X_16 >= 8
 YS0X0P0: - X_0 + Y_0_1_0 <= 0
 YS0X1P0: - X_1 + Y_0_1_0 <= 0
 Y0_1: - X_0 - X_1 + Y_0_1_0 >= -1
 YS1X0P0: - X_0 + Y_0_2_0 <= 0
 YS1X2P0: - X_2 + Y_0_2_0 <= 0
 Y0_2: - X_0 - X_2 + Y_0_2_0 >= -1
 YS2X0P0: - X_0 + Y_0_3_0 <= 0
 YS2X3P0: - X_3 + Y_0_3_0 <= 0
 Y0_3: - X_0 - X_3 + Y_0_3_0 >= -1
 YS3X0P0: - X_0 + Y_0_4_0 <= 0
 YS3X4P0: - X_4 + Y_0_4_0 <= 0
 Y0_4: - X_0 - X_4 + Y_0_4_0 >= -1
 YS4X0P0: - X_0 + Y_0_5_0 <= 0
 YS4X5P0: - X_5 + Y_0_5_0 <= 0
 Y0_5: - X_0 - X_5 + Y_0_5_0 >= -1
 YS5X0P0: - X_0 + Y_0_6_0 <= 0
 YS5X6P0: - X_6 + Y_0_6_0 <= 0
 Y0_6: - X_0 - X_6 + Y_0_6_0 >= -1
 YS6X0P0: - X_0 + Y_0_7_0 <= 0
 YS6X7P0: - X_7 + Y_0_7_0 <= 0
 Y0_7: - X_0 - X_7 + Y_0_7_0 >= -1
 YS7X0P0: - X_0 + Y_0_8_0 <= 0
 YS7X8P0: - X_8 + Y_0_8_0 <= 0
 Y0_8: - X_0 - X_8 + Y_0_8_0 >= -1
 YS8X0P0: - X_0 + Y_0_9_0 <= 0
 YS8X9P0: - X_9 + Y_0_9_0 <= 0
 Y0_9: - X_0 - X_9 + Y_0_9_0 >= -1
 YS9X0P0: - X_0 + Y_0_10_0 <= 0
 YS9X10P0: - X_10 + Y_0_10_0 <= 0
 Y0_10: - X_0 - X_10 + Y_0_10_0 >= -1
 YS10X0P0: - X_0 + Y_0_11_0 <= 0
 YS10X11P0: - X_11 + Y_0_11_0 <= 0
 Y0_11: - X_0 - X_11 + Y_0_11_0 >= -1
 YS11X0P0: - X_0 + Y_0_12_0 <= 0
 YS11X12P0: - X_12 + Y_0_12_0 <= 0
 Y0_12: - X_0 - X_12 + Y_0_12_0 >= -1
 YS12X0P0: - X_0 + Y_0_13_0 <= 0
 YS12X13P0: - X_13 + Y_0_13_0 <= 0
 Y0_13: - X_0 - X_13 + Y_0_13_0 >= -1
 YS13X0P0: - X_0 + Y_0_14_0 <= 0
 YS13X14P0: - X_14 + Y_0_14_0 <= 0
 Y0_14: - X_0 - X_14 + Y_0_14_0 >= -1
 YS14X0P0: - X_0 + Y_0_15_0 <= 0
 YS14X15P0: - X_15 + Y_0_15_0 <= 0
 Y0_15: - X_0 - X_15 + Y_0_15_0 >= -1
 YS15X0P0: - X_0 + Y_0_16_0 <= 0
 YS15X16P0: - X_16 + Y_0_16_0 <= 0
 Y0_16: - X_0 - X_16 + Y_0_16_0 >= -1
 YS16X1P0: - X_1 + Y_1_2_0 <= 0
 YS16X2P0: - X_2 + Y_1_2_0 <= 0
 Y1_2: - X_1 - X_2 + Y_1_2_0 >= -1
 YS17X1P0: - X_1 + Y_1_3_0 <= 0
 YS17X3P0: - X_3 + Y_1_3_0 <= 0
 Y1_3: - X_1 - X_3 + Y_1_3_0 >= -1
 YS18X1P0: - X_1 + Y_1_4_0 <= 0
 YS18X4P0: - X_4 + Y_1_4_0 <= 0
 Y1_4: - X_1 - X_4 + Y_1_4_0 >= -1
 YS19X1P0: - X_1 + Y_1_5_0 <= 0
 YS19X5P0: - X_5 + Y_1_5_0 <= 0
 Y1_5: - X_1 - X_5 + Y_1_5_0 >= -1
 YS20X1P0: - X_1 + Y_1_6_0 <= 0
 YS20X6P0: - X_6 + Y_1_6_0 <= 0
 Y1_6: - X_1 - X_6 + Y_1_6_0 >= -1
 YS21X1P0: - X_1 + Y_1_7_0 <= 0
 YS21X7P0: - X_7 + Y_1_7_0 <= 0
 Y1_7: - X_1 - X_7 + Y_1_7_0 >= -1
 YS22X1P0: - X_1 + Y_1_8_0 <= 0
 YS22X8P0: - X_8 + Y_1_8_0 <= 0
 Y1_8: - X_1 - X_8 + Y_1_8_0 >= -1
 YS23X1P0: - X_1 + Y_1_9_0 <= 0
 YS23X9P0: - X_9 + Y_1_9_0 <= 0
 Y1_9: - X_1 - X_9 + Y_1_9_0 >= -1
 YS24X1P0: - X_1 + Y_1_10_0 <= 0
 YS24X10P0: - X_10 + Y_1_10_0 <= 0
 Y1_10: - X_1 - X_10 + Y_1_10_0 >= -1
 YS25X1P0: - X_1 + Y_1_11_0 <= 0
 YS25X11P0: - X_11 + Y_1_11_0 <= 0
 Y1_11: - X_1 - X_11 + Y_1_11_0 >= -1
 YS26X1P0: - X_1 + Y_1_12_0 <= 0
 YS26X12P0: - X_12 + Y_1_12_0 <= 0
 Y1_12: - X_1 - X_12 + Y_1_12_0 >= -1
 YS27X1P0: - X_1 + Y_1_13_0 <= 0
 YS27X13P0: - X_13 + Y_1_13_0 <= 0
 Y1_13: - X_1 - X_13 + Y_1_13_0 >= -1
 YS28X1P0: - X_1 + Y_1_14_0 <= 0
 YS28X14P0: - X_14 + Y_1_14_0 <= 0
 Y1_14: - X_1 - X_14 + Y_1_14_0 >= -1
 YS29X1P0: - X_1 + Y_1_15_0 <= 0
 YS29X15P0: - X_15 + Y_1_15_0 <= 0
 Y1_15: - X_1 - X_15 + Y_1_15_0 >= -1
 YS30X1P0: - X_1 + Y_1_16_0 <= 0
 YS30X16P0: - X_16 + Y_1_16_0 <= 0
 Y1_16: - X_1 - X_16 + Y_1_16_0 >= -1
 YS31X2P0: - X_2 + Y_2_3_0 <= 0
 YS31X3P0: - X_3 + Y_2_3_0 <= 0
 Y2_3: - X_2 - X_3 + Y_2_3_0 >= -1
 YS32X2P0: - X_2 + Y_2_4_0 <= 0
 YS32X4P0: - X_4 + Y_2_4_0 <= 0
 Y2_4: - X_2 - X_4 + Y_2_4_0 >= -1
 YS33X2P0: - X_2 + Y_2_5_0 <= 0
 YS33X5P0: - X_5 + Y_2_5_0 <= 0
 Y2_5: - X_2 - X_5 + Y_2_5_0 >= -1
 YS34X2P0: - X_2 + Y_2_6_0 <= 0
 YS34X6P0: - X_6 + Y_2_6_0 <= 0
 Y2_6: - X_2 - X_6 + Y_2_6_0 >= -1
 YS35X2P0: - X_2 + Y_2_7_0 <= 0
 YS35X7P0: - X_7 + Y_2_7_0 <= 0
 Y2_7: - X_2 - X_7 + Y_2_7_0 >= -1
 YS36X2P0: - X_2 + Y_2_8_0 <= 0
 YS36X8P0: - X_8 + Y_2_8_0 <= 0
 Y2_8: - X_2 - X_8 + Y_2_8_0 >= -1
 YS37X2P0: - X_2 + Y_2_9_0 <= 0
 YS37X9P0: - X_9 + Y_2_9_0 <= 0
 Y2_9: - X_2 - X_9 + Y_2_9_0 >= -1
 YS38X2P0: - X_2 + Y_2_10_0 <= 0
 YS38X10P0: - X_10 + Y_2_10_0 <= 0
 Y2_10: - X_2 - X_10 + Y_2_10_0 >= -1
 YS39X2P0: - X_2 + Y_2_11_0 <= 0
 YS39X11P0: - X_11 + Y_2_11_0 <= 0
 Y2_11: - X_2 - X_11 + Y_2_11_0 >= -1
 YS40X2P0: - X_2 + Y_2_12_0 <= 0
 YS40X12P0: - X_12 + Y_2_12_0 <= 0
 Y2_12: - X_2 - X_12 + Y_2_12_0 >= -1
 YS41X2P0: - X_2 + Y_2_13_0 <= 0
 YS41X13P0: - X_13 + Y_2_13_0 <= 0
 Y2_13: - X_2 - X_13 + Y_2_13_0 >= -1
 YS42X2P0: - X_2 + Y_2_14_0 <= 0
 YS42X14P0: - X_14 + Y_2_14_0 <= 0
 Y2_14: - X_2 - X_14 + Y_2_14_0 >= -1
 YS43X2P0: - X_2 + Y_2_15_0 <= 0
 YS43X15P0: - X_15 + Y_2_15_0 <= 0
 Y2_15: - X_2 - X_15 + Y_2_15_0 >= -1
 YS44X2P0: - X_2 + Y_2_16_0 <= 0
 YS44X16P0: - X_16 + Y_2_16_0 <= 0
 Y2_16: - X_2 - X_16 + Y_2_16_0 >= -1
 YS45X3P0: - X_3 + Y_3_4_0 <= 0
 YS45X4P0: - X_4 + Y_3_4_0 <= 0
 Y3_4: - X_3 - X_4 + Y_3_4_0 >= -1
 YS46X3P0: - X_3 + Y_3_5_0 <= 0
 YS46X5P0: - X_5 + Y_3_5_0 <= 0
 Y3_5: - X_3 - X_5 + Y_3_5_0 >= -1
 YS47X3P0: - X_3 + Y_3_6_0 <= 0
 YS47X6P0: - X_6 + Y_3_6_0 <= 0
 Y3_6: - X_3 - X_6 + Y_3_6_0 >= -1
 YS48X3P0: - X_3 + Y_3_7_0 <= 0
 YS48X7P0: - X_7 + Y_3_7_0 <= 0
 Y3_7: - X_3 - X_7 + Y_3_7_0 >= -1
 YS49X3P0: - X_3 + Y_3_8_0 <= 0
 YS49X8P0: - X_8 + Y_3_8_0 <= 0
 Y3_8: - X_3 - X_8 + Y_3_8_0 >= -1
 YS50X3P0: - X_3 + Y_3_9_0 <= 0
 YS50X9P0: - X_9 + Y_3_9_0 <= 0
 Y3_9: - X_3 - X_9 + Y_3_9_0 >= -1
 YS51X3P0: - X_3 + Y_3_10_0 <= 0
 YS51X10P0: - X_10 + Y_3_10_0 <= 0
 Y3_10: - X_3 - X_10 + Y_3_10_0 >= -1
 YS52X3P0: - X_3 + Y_3_11_0 <= 0
 YS52X11P0: - X_11 + Y_3_11_0 <= 0
 Y3_11: - X_3 - X_11 + Y_3_11_0 >= -1
 YS53X3P0: - X_3 + Y_3_12_0 <= 0
 YS53X12P0: - X_12 + Y_3_12_0 <= 0
 Y3_12: - X_3 - X_12 + Y_3_12_0 >= -1
 YS54X3P0: - X_3 + Y_3_13_0 <= 0
 YS54X13P0: - X_13 + Y_3_13_0 <= 0
 Y3_13: - X_3 - X_13 + Y_3_13_0 >= -1
 YS55X3P0: - X_3 + Y_3_14_0 <= 0
 YS55X14P0: - X_14 + Y_3_14_0 <= 0
 Y3_14: - X_3 - X_14 + Y_3_14_0 >= -1
 YS56X3P0: - X_3 + Y_3_15_0 <= 0
 YS56X15P0: - X_15 + Y_3_15_0 <= 0
 Y3_15: - X_3 - X_15 + Y_3_15_0 >= -1
 YS57X3P0: - X_3 + Y_3_16_0 <= 0
 YS57X16P0: - X_16 + Y_3_16_0 <= 0
 Y3_16: - X_3 - X_16 + Y_3_16_0 >= -1
 YS58X4P0: - X_4 + Y_4_5_0 <= 0
 YS58X5P0: - X_5 + Y_4_5_0 <= 0
 Y4_5: - X_4 - X_5 + Y_4_5_0 >= -1
 YS59X4P0: - X_4 + Y_4_6_0 <= 0
 YS59X6P0: - X_6 + Y_4_6_0 <= 0
 Y4_6: - X_4 - X_6 + Y_4_6_0 >= -1
 YS60X4P0: - X_4 + Y_4_7_0 <= 0
 YS60X7P0: - X_7 + Y_4_7_0 <= 0
 Y4_7: - X_4 - X_7 + Y_4_7_0 >= -1
 YS61X4P0: - X_4 + Y_4_8_0 <= 0
 YS61X8P0: - X_8 + Y_4_8_0 <= 0
 Y4_8: - X_4 - X_8 + Y_4_8_0 >= -1
 YS62X4P0: - X_4 + Y_4_9_0 <= 0
 YS62X9P0: - X_9 + Y_4_9_0 <= 0
 Y4_9: - X_4 - X_9 + Y_4_9_0 >= -1
 YS63X4P0: - X_4 + Y_4_10_0 <= 0
 YS63X10P0: - X_10 + Y_4_10_0 <= 0
 Y4_10: - X_4 - X_10 + Y_4_10_0 >= -1
 YS64X4P0: - X_4 + Y_4_11_0 <= 0
 YS64X11P0: - X_11 + Y_4_11_0 <= 0
 Y4_11: - X_4 - X_11 + Y_4_11_0 >= -1
 YS65X4P0: - X_4 + Y_4_12_0 <= 0
 YS65X12P0: - X_12 + Y_4_12_0 <= 0
 Y4_12: - X_4 - X_12 + Y_4_12_0 >= -1
 YS66X4P0: - X_4 + Y_4_13_0 <= 0
 YS66X13P0: - X_13 + Y_4_13_0 <= 0
 Y4_13: - X_4 - X_13 + Y_4_13_0 >= -1
 YS67X4P0: - X_4 + Y_4_14_0 <= 0
 YS67X14P0: - X_14 + Y_4_14_0 <= 0
 Y4_14: - X_4 - X_14 + Y_4_14_0 >= -1
 YS68X4P0: - X_4 + Y_4_15_0 <= 0
 YS68X15P0: - X_15 + Y_4_15_0 <= 0
 Y4_15: - X_4 - X_15 + Y_4_15_0 >= -1
 YS69X4P0: - X_4 + Y_4_16_0 <= 0
 YS69X16P0: - X_16 + Y_4_16_0 <= 0
 Y4_16: - X_4 - X_16 + Y_4_16_0 >= -1
 YS70X5P0: - X_5 + Y_5_6_0 <= 0
 YS70X6P0: - X_6 + Y_5_6_0 <= 0
 Y5_6: - X_5 - X_6 + Y_5_6_0 >= -1
 YS71X5P0: - X_5 + Y_5_7_0 <= 0
 YS71X7P0: - X_7 + Y_5_7_0 <= 0
 Y5_7: - X_5 - X_7 + Y_5_7_0 >= -1
 YS72X5P0: - X_5 + Y_5_8_0 <= 0
 YS72X8P0: - X_8 + Y_5_8_0 <= 0
 Y5_8: - X_5 - X_8 + Y_5_8_0 >= -1
 YS73X5P0: - X_5 + Y_5_9_0 <= 0
 YS73X9P0: - X_9 + Y_5_9_0 <= 0
 Y5_9: - X_5 - X_9 + Y_5_9_0 >= -1
 YS74X5P0: - X_5 + Y_5_10_0 <= 0
 YS74X10P0: - X_10 + Y_5_10_0 <= 0
 Y5_10: - X_5 - X_10 + Y_5_10_0 >= -1
 YS75X5P0: - X_5 + Y_5_11_0 <= 0
 YS75X11P0: - X_11 + Y_5_11_0 <= 0
 Y5_11: - X_5 - X_11 + Y_5_11_0 >= -1
 YS76X5P0: - X_5 + Y_5_12_0 <= 0
 YS76X12P0: - X_12 + Y_5_12_0 <= 0
 Y5_12: - X_5 - X_12 + Y_5_12_0 >= -1
 YS77X5P0: - X_5 + Y_5_13_0 <= 0
 YS77X13P0: - X_13 + Y_5_13_0 <= 0
 Y5_13: - X_5 - X_13 + Y_5_13_0 >= -1
 YS78X5P0: - X_5 + Y_5_14_0 <= 0
 YS78X14P0: - X_14 + Y_5_14_0 <= 0
 Y5_14: - X_5 - X_14 + Y_5_14_0 >= -1
 YS79X5P0: - X_5 + Y_5_15_0 <= 0
 YS79X15P0: - X_15 + Y_5_15_0 <= 0
 Y5_15: - X_5 - X_15 + Y_5_15_0 >= -1
 YS80X5P0: - X_5 + Y_5_16_0 <= 0
 YS80X16P0: - X_16 + Y_5_16_0 <= 0
 Y5_16: - X_5 - X_16 + Y_5_16_0 >= -1
 YS81X6P0: - X_6 + Y_6_7_0 <= 0
 YS81X7P0: - X_7 + Y_6_7_0 <= 0
 Y6_7: - X_6 - X_7 + Y_6_7_0 >= -1
 YS82X6P0: - X_6 + Y_6_8_0 <= 0
 YS82X8P0: - X_8 + Y_6_8_0 <= 0
 Y6_8: - X_6 - X_8 + Y_6_8_0 >= -1
 YS83X6P0: - X_6 + Y_6_9_0 <= 0
 YS83X9P0: - X_9 + Y_6_9_0 <= 0
 Y6_9: - X_6 - X_9 + Y_6_9_0 >= -1
 YS84X6P0: - X_6 + Y_6_10_0 <= 0
 YS84X10P0: - X_10 + Y_6_10_0 <= 0
 Y6_10: - X_6 - X_10 + Y_6_10_0 >= -1
 YS85X6P0: - X_6 + Y_6_11_0 <= 0
 YS85X11P0: - X_11 + Y_6_11_0 <= 0
 Y6_11: - X_6 - X_11 + Y_6_11_0 >= -1
 YS86X6P0: - X_6 + Y_6_12_0 <= 0
 YS86X12P0: - X_12 + Y_6_12_0 <= 0
 Y6_12: - X_6 - X_12 + Y_6_12_0 >= -1
 YS87X6P0: - X_6 + Y_6_13_0 <= 0
 YS87X13P0: - X_13 + Y_6_13_0 <= 0
 Y6_13: - X_6 - X_13 + Y_6_13_0 >= -1
 YS88X6P0: - X_6 + Y_6_14_0 <= 0
 YS88X14P0: - X_14 + Y_6_14_0 <= 0
 Y6_14: - X_6 - X_14 + Y_6_14_0 >= -1
 YS89X6P0: - X_6 + Y_6_15_0 <= 0
 YS89X15P0: - X_15 + Y_6_15_0 <= 0
 Y6_15: - X_6 - X_15 + Y_6_15_0 >= -1
 YS90X6P0: - X_6 + Y_6_16_0 <= 0
 YS90X16P0: - X_16 + Y_6_16_0 <= 0
 Y6_16: - X_6 - X_16 + Y_6_16_0 >= -1
 YS91X7P0: - X_7 + Y_7_8_0 <= 0
 YS91X8P0: - X_8 + Y_7_8_0 <= 0
 Y7_8: - X_7 - X_8 + Y_7_8_0 >= -1
 YS92X7P0: - X_7 + Y_7_9_0 <= 0
 YS92X9P0: - X_9 + Y_7_9_0 <= 0
 Y7_9: - X_7 - X_9 + Y_7_9_0 >= -1
 YS93X7P0: - X_7 + Y_7_10_0 <= 0
 YS93X10P0: - X_10 + Y_7_10_0 <= 0
 Y7_10: - X_7 - X_10 + Y_7_10_0 >= -1
 YS94X7P0: - X_7 + Y_7_11_0 <= 0
 YS94X11P0: - X_11 + Y_7_11_0 <= 0
 Y7_11: - X_7 - X_11 + Y_7_11_0 >= -1
 YS95X7P0: - X_7 + Y_7_12_0 <= 0
 YS95X12P0: - X_12 + Y_7_12_0 <= 0
 Y7_12: - X_7 - X_12 + Y_7_12_0 >= -1
 YS96X7P0: - X_7 + Y_7_13_0 <= 0
 YS96X13P0: - X_13 + Y_7_13_0 <= 0
 Y7_13: - X_7 - X_13 + Y_7_13_0 >= -1
 YS97X7P0: - X_7 + Y_7_14_0 <= 0
 YS97X14P0: - X_14 + Y_7_14_0 <= 0
 Y7_14: - X_7 - X_14 + Y_7_14_0 >= -1
 YS98X7P0: - X_7 + Y_7_15_0 <= 0
 YS98X15P0: - X_15 + Y_7_15_0 <= 0
 Y7_15: - X_7 - X_15 + Y_7_15_0 >= -1
 YS99X7P0: - X_7 + Y_7_16_0 <= 0
 YS99X16P0: - X_16 + Y_7_16_0 <= 0
 Y7_16: - X_7 - X_16 + Y_7_16_0 >= -1
 YS100X8P0: - X_8 + Y_8_9_0 <= 0
 YS100X9P0: - X_9 + Y_8_9_0 <= 0
 Y8_9: - X_8 - X_9 + Y_8_9_0 >= -1
 YS101X8P0: - X_8 + Y_8_10_0 <= 0
 YS101X10P0: - X_10 + Y_8_10_0 <= 0
 Y8_10: - X_8 - X_10 + Y_8_10_0 >= -1
 YS102X8P0: - X_8 + Y_8_11_0 <= 0
 YS102X11P0: - X_11 + Y_8_11_0 <= 0
 Y8_11: - X_8 - X_11 + Y_8_11_0 >= -1
 YS103X8P0: - X_8 + Y_8_12_0 <= 0
 YS103X12P0: - X_12 + Y_8_12_0 <= 0
 Y8_12: - X_8 - X_12 + Y_8_12_0 >= -1
 YS104X8P0: - X_8 + Y_8_13_0 <= 0
 YS104X13P0: - X_13 + Y_8_13_0 <= 0
 Y8_13: - X_8 - X_13 + Y_8_13_0 >= -1
 YS105X8P0: - X_8 + Y_8_14_0 <= 0
 YS105X14P0: - X_14 + Y_8_14_0 <= 0
 Y8_14: - X_8 - X_14 + Y_8_14_0 >= -1
 YS106X8P0: - X_8 + Y_8_15_0 <= 0
 YS106X15P0: - X_15 + Y_8_15_0 <= 0
 Y8_15: - X_8 - X_15 + Y_8_15_0 >= -1
 YS107X8P0: - X_8 + Y_8_16_0 <= 0
 YS107X16P0: - X_16 + Y_8_16_0 <= 0
 Y8_16: - X_8 - X_16 + Y_8_16_0 >= -1
 YS108X9P0: - X_9 + Y_9_10_0 <= 0
 YS108X10P0: - X_10 + Y_9_10_0 <= 0
 Y9_10: - X_9 - X_10 + Y_9_10_0 >= -1
 YS109X9P0: - X_9 + Y_9_11_0 <= 0
 YS109X11P0: - X_11 + Y_9_11_0 <= 0
 Y9_11: - X_9 - X_11 + Y_9_11_0 >= -1
 YS110X9P0: - X_9 + Y_9_12_0 <= 0
 YS110X12P0: - X_12 + Y_9_12_0 <= 0
 Y9_12: - X_9 - X_12 + Y_9_12_0 >= -1
 YS111X9P0: - X_9 + Y_9_13_0 <= 0
 YS111X13P0: - X_13 + Y_9_13_0 <= 0
 Y9_13: - X_9 - X_13 + Y_9_13_0 >= -1
 YS112X9P0: - X_9 + Y_9_14_0 <= 0
 YS112X14P0: - X_14 + Y_9_14_0 <= 0
 Y9_14: - X_9 - X_14 + Y_9_14_0 >= -1
 YS113X9P0: - X_9 + Y_9_15_0 <= 0
 YS113X15P0: - X_15 + Y_9_15_0 <= 0
 Y9_15: - X_9 - X_15 + Y_9_15_0 >= -1
 YS114X9P0: - X_9 + Y_9_16_0 <= 0
 YS114X16P0: - X_16 + Y_9_16_0 <= 0
 Y9_16: - X_9 - X_16 + Y_9_16_0 >= -1
 YS115X10P0: - X_10 + Y_10_11_0 <= 0
 YS115X11P0: - X_11 + Y_10_11_0 <= 0
 Y10_11: - X_10 - X_11 + Y_10_11_0 >= -1
 YS116X10P0: - X_10 + Y_10_12_0 <= 0
 YS116X12P0: - X_12 + Y_10_12_0 <= 0
 Y10_12: - X_10 - X_12 + Y_10_12_0 >= -1
 YS117X10P0: - X_10 + Y_10_13_0 <= 0
 YS117X13P0: - X_13 + Y_10_13_0 <= 0
 Y10_13: - X_10 - X_13 + Y_10_13_0 >= -1
 YS118X10P0: - X_10 + Y_10_14_0 <= 0
 YS118X14P0: - X_14 + Y_10_14_0 <= 0
 Y10_14: - X_10 - X_14 + Y_10_14_0 >= -1
 YS119X10P0: - X_10 + Y_10_15_0 <= 0
 YS119X15P0: - X_15 + Y_10_15_0 <= 0
 Y10_15: - X_10 - X_15 + Y_10_15_0 >= -1
 YS120X10P0: - X_10 + Y_10_16_0 <= 0
 YS120X16P0: - X_16 + Y_10_16_0 <= 0
 Y10_16: - X_10 - X_16 + Y_10_16_0 >= -1
 YS121X11P0: - X_11 + Y_11_12_0 <= 0
 YS121X12P0: - X_12 + Y_11_12_0 <= 0
 Y11_12: - X_11 - X_12 + Y_11_12_0 >= -1
 YS122X11P0: - X_11 + Y_11_13_0 <= 0
 YS122X13P0: - X_13 + Y_11_13_0 <= 0
 Y11_13: - X_11 - X_13 + Y_11_13_0 >= -1
 YS123X11P0: - X_11 + Y_11_14_0 <= 0
 YS123X14P0: - X_14 + Y_11_14_0 <= 0
 Y11_14: - X_11 - X_14 + Y_11_14_0 >= -1
 YS124X11P0: - X_11 + Y_11_15_0 <= 0
 YS124X15P0: - X_15 + Y_11_15_0 <= 0
 Y11_15: - X_11 - X_15 + Y_11_15_0 >= -1
 YS125X11P0: - X_11 + Y_11_16_0 <= 0
 YS125X16P0: - X_16 + Y_11_16_0 <= 0
 Y11_16: - X_11 - X_16 + Y_11_16_0 >= -1
 YS126X12P0: - X_12 + Y_12_13_0 <= 0
 YS126X13P0: - X_13 + Y_12_13_0 <= 0
 Y12_13: - X_12 - X_13 + Y_12_13_0 >= -1
 YS127X12P0: - X_12 + Y_12_14_0 <= 0
 YS127X14P0: - X_14 + Y_12_14_0 <= 0
 Y12_14: - X_12 - X_14 + Y_12_14_0 >= -1
 YS128X12P0: - X_12 + Y_12_15_0 <= 0
 YS128X15P0: - X_15 + Y_12_15_0 <= 0
 Y12_15: - X_12 - X_15 + Y_12_15_0 >= -1
 YS129X12P0: - X_12 + Y_12_16_0 <= 0
 YS129X16P0: - X_16 + Y_12_16_0 <= 0
 Y12_16: - X_12 - X_16 + Y_12_16_0 >= -1
 YS130X13P0: - X_13 + Y_13_14_0 <= 0
 YS130X14P0: - X_14 + Y_13_14_0 <= 0
 Y13_14: - X_13 - X_14 + Y_13_14_0 >= -1
 YS131X13P0: - X_13 + Y_13_15_0 <= 0
 YS131X15P0: - X_15 + Y_13_15_0 <= 0
 Y13_15: - X_13 - X_15 + Y_13_15_0 >= -1
 YS132X13P0: - X_13 + Y_13_16_0 <= 0
 YS132X16P0: - X_16 + Y_13_16_0 <= 0
 Y13_16: - X_13 - X_16 + Y_13_16_0 >= -1
 YS133X14P0: - X_14 + Y_14_15_0 <= 0
 YS133X15P0: - X_15 + Y_14_15_0 <= 0
 Y14_15: - X_14 - X_15 + Y_14_15_0 >= -1
 YS134X14P0: - X_14 + Y_14_16_0 <= 0
 YS134X16P0: - X_16 + Y_14_16_0 <= 0
 Y14_16: - X_14 - X_16 + Y_14_16_0 >= -1
 YS135X15P0: - X_15 + Y_15_16_0 <= 0
 YS135X16P0: - X_16 + Y_15_16_0 <= 0
 Y15_16: - X_15 - X_16 + Y_15_16_0 >= -1
 YS0X0P1: - X_0 + Y_0_1_1 <= 0
 YS0X1P1: - X_1 + Y_0_1_1 <= 0
 Y0_1: - X_0 - X_1 + Y_0_1_1 >= -1
 YS1X0P1: - X_0 + Y_0_2_1 <= 0
 YS1X2P1: - X_2 + Y_0_2_1 <= 0
 Y0_2: - X_0 - X_2 + Y_0_2_1 >= -1
 YS2X0P1: - X_0 + Y_0_3_1 <= 0
 YS2X3P1: - X_3 + Y_0_3_1 <= 0
 Y0_3: - X_0 - X_3 + Y_0_3_1 >= -1
 YS3X0P1: - X_0 + Y_0_4_1 <= 0
 YS3X4P1: - X_4 + Y_0_4_1 <= 0
 Y0_4: - X_0 - X_4 + Y_0_4_1 >= -1
 YS4X0P1: - X_0 + Y_0_5_1 <= 0
 YS4X5P1: - X_5 + Y_0_5_1 <= 0
 Y0_5: - X_0 - X_5 + Y_0_5_1 >= -1
 YS5X0P1: - X_0 + Y_0_6_1 <= 0
 YS5X6P1: - X_6 + Y_0_6_1 <= 0
 Y0_6: - X_0 - X_6 + Y_0_6_1 >= -1
 YS6X0P1: - X_0 + Y_0_7_1 <= 0
 YS6X7P1: - X_7 + Y_0_7_1 <= 0
 Y0_7: - X_0 - X_7 + Y_0_7_1 >= -1
 YS7X0P1: - X_0 + Y_0_8_1 <= 0
 YS7X8P1: - X_8 + Y_0_8_1 <= 0
 Y0_8: - X_0 - X_8 + Y_0_8_1 >= -1
 YS8X0P1: - X_0 + Y_0_9_1 <= 0
 YS8X9P1: - X_9 + Y_0_9_1 <= 0
 Y0_9: - X_0 - X_9 + Y_0_9_1 >= -1
 YS9X0P1: - X_0 + Y_0_10_1 <= 0
 YS9X10P1: - X_10 + Y_0_10_1 <= 0
 Y0_10: - X_0 - X_10 + Y_0_10_1 >= -1
 YS10X0P1: - X_0 + Y_0_11_1 <= 0
 YS10X11P1: - X_11 + Y_0_11_1 <= 0
 Y0_11: - X_0 - X_11 + Y_0_11_1 >= -1
 YS11X0P1: - X_0 + Y_0_12_1 <= 0
 YS11X12P1: - X_12 + Y_0_12_1 <= 0
 Y0_12: - X_0 - X_12 + Y_0_12_1 >= -1
 YS12X0P1: - X_0 + Y_0_13_1 <= 0
 YS12X13P1: - X_13 + Y_0_13_1 <= 0
 Y0_13: - X_0 - X_13 + Y_0_13_1 >= -1
 YS13X0P1: - X_0 + Y_0_14_1 <= 0
 YS13X14P1: - X_14 + Y_0_14_1 <= 0
 Y0_14: - X_0 - X_14 + Y_0_14_1 >= -1
 YS14X0P1: - X_0 + Y_0_15_1 <= 0
 YS14X15P1: - X_15 + Y_0_15_1 <= 0
 Y0_15: - X_0 - X_15 + Y_0_15_1 >= -1
 YS15X0P1: - X_0 + Y_0_16_1 <= 0
 YS15X16P1: - X_16 + Y_0_16_1 <= 0
 Y0_16: - X_0 - X_16 + Y_0_16_1 >= -1
 YS16X1P1: - X_1 + Y_1_2_1 <= 0
 YS16X2P1: - X_2 + Y_1_2_1 <= 0
 Y1_2: - X_1 - X_2 + Y_1_2_1 >= -1
 YS17X1P1: - X_1 + Y_1_3_1 <= 0
 YS17X3P1: - X_3 + Y_1_3_1 <= 0
 Y1_3: - X_1 - X_3 + Y_1_3_1 >= -1
 YS18X1P1: - X_1 + Y_1_4_1 <= 0
 YS18X4P1: - X_4 + Y_1_4_1 <= 0
 Y1_4: - X_1 - X_4 + Y_1_4_1 >= -1
 YS19X1P1: - X_1 + Y_1_5_1 <= 0
 YS19X5P1: - X_5 + Y_1_5_1 <= 0
 Y1_5: - X_1 - X_5 + Y_1_5_1 >= -1
 YS20X1P1: - X_1 + Y_1_6_1 <= 0
 YS20X6P1: - X_6 + Y_1_6_1 <= 0
 Y1_6: - X_1 - X_6 + Y_1_6_1 >= -1
 YS21X1P1: - X_1 + Y_1_7_1 <= 0
 YS21X7P1: - X_7 + Y_1_7_1 <= 0
 Y1_7: - X_1 - X_7 + Y_1_7_1 >= -1
 YS22X1P1: - X_1 + Y_1_8_1 <= 0
 YS22X8P1: - X_8 + Y_1_8_1 <= 0
 Y1_8: - X_1 - X_8 + Y_1_8_1 >= -1
 YS23X1P1: - X_1 + Y_1_9_1 <= 0
 YS23X9P1: - X_9 + Y_1_9_1 <= 0
 Y1_9: - X_1 - X_9 + Y_1_9_1 >= -1
 YS24X1P1: - X_1 + Y_1_10_1 <= 0
 YS24X10P1: - X_10 + Y_1_10_1 <= 0
 Y1_10: - X_1 - X_10 + Y_1_10_1 >= -1
 YS25X1P1: - X_1 + Y_1_11_1 <= 0
 YS25X11P1: - X_11 + Y_1_11_1 <= 0
 Y1_11: - X_1 - X_11 + Y_1_11_1 >= -1
 YS26X1P1: - X_1 + Y_1_12_1 <= 0
 YS26X12P1: - X_12 + Y_1_12_1 <= 0
 Y1_12: - X_1 - X_12 + Y_1_12_1 >= -1
 YS27X1P1: - X_1 + Y_1_13_1 <= 0
 YS27X13P1: - X_13 + Y_1_13_1 <= 0
 Y1_13: - X_1 - X_13 + Y_1_13_1 >= -1
 YS28X1P1: - X_1 + Y_1_14_1 <= 0
 YS28X14P1: - X_14 + Y_1_14_1 <= 0
 Y1_14: - X_1 - X_14 + Y_1_14_1 >= -1
 YS29X1P1: - X_1 + Y_1_15_1 <= 0
 YS29X15P1: - X_15 + Y_1_15_1 <= 0
 Y1_15: - X_1 - X_15 + Y_1_15_1 >= -1
 YS30X1P1: - X_1 + Y_1_16_1 <= 0
 YS30X16P1: - X_16 + Y_1_16_1 <= 0
 Y1_16: - X_1 - X_16 + Y_1_16_1 >= -1
 YS31X2P1: - X_2 + Y_2_3_1 <= 0
 YS31X3P1: - X_3 + Y_2_3_1 <= 0
 Y2_3: - X_2 - X_3 + Y_2_3_1 >= -1
 YS32X2P1: - X_2 + Y_2_4_1 <= 0
 YS32X4P1: - X_4 + Y_2_4_1 <= 0
 Y2_4: - X_2 - X_4 + Y_2_4_1 >= -1
 YS33X2P1: - X_2 + Y_2_5_1 <= 0
 YS33X5P1: - X_5 + Y_2_5_1 <= 0
 Y2_5: - X_2 - X_5 + Y_2_5_1 >= -1
 YS34X2P1: - X_2 + Y_2_6_1 <= 0
 YS34X6P1: - X_6 + Y_2_6_1 <= 0
 Y2_6: - X_2 - X_6 + Y_2_6_1 >= -1
 YS35X2P1: - X_2 + Y_2_7_1 <= 0
 YS35X7P1: - X_7 + Y_2_7_1 <= 0
 Y2_7: - X_2 - X_7 + Y_2_7_1 >= -1
 YS36X2P1: - X_2 + Y_2_8_1 <= 0
 YS36X8P1: - X_8 + Y_2_8_1 <= 0
 Y2_8: - X_2 - X_8 + Y_2_8_1 >= -1
 YS37X2P1: - X_2 + Y_2_9_1 <= 0
 YS37X9P1: - X_9 + Y_2_9_1 <= 0
 Y2_9: - X_2 - X_9 + Y_2_9_1 >= -1
 YS38X2P1: - X_2 + Y_2_10_1 <= 0
 YS38X10P1: - X_10 + Y_2_10_1 <= 0
 Y2_10: - X_2 - X_10 + Y_2_10_1 >= -1
 YS39X2P1: - X_2 + Y_2_11_1 <= 0
 YS39X11P1: - X_11 + Y_2_11_1 <= 0
 Y2_11: - X_2 - X_11 + Y_2_11_1 >= -1
 YS40X2P1: - X_2 + Y_2_12_1 <= 0
 YS40X12P1: - X_12 + Y_2_12_1 <= 0
 Y2_12: - X_2 - X_12 + Y_2_12_1 >= -1
 YS41X2P1: - X_2 + Y_2_13_1 <= 0
 YS41X13P1: - X_13 + Y_2_13_1 <= 0
 Y2_13: - X_2 - X_13 + Y_2_13_1 >= -1
 YS42X2P1: - X_2 + Y_2_14_1 <= 0
 YS42X14P1: - X_14 + Y_2_14_1 <= 0
 Y2_14: - X_2 - X_14 + Y_2_14_1 >= -1
 YS43X2P1: - X_2 + Y_2_15_1 <= 0
 YS43X15P1: - X_15 + Y_2_15_1 <= 0
 Y2_15: - X_2 - X_15 + Y_2_15_1 >= -1
 YS44X2P1: - X_2 + Y_2_16_1 <= 0
 YS44X16P1: - X_16 + Y_2_16_1 <= 0
 Y2_16: - X_2 - X_16 + Y_2_16_1 >= -1
 YS45X3P1: - X_3 + Y_3_4_1 <= 0
 YS45X4P1: - X_4 + Y_3_4_1 <= 0
 Y3_4: - X_3 - X_4 + Y_3_4_1 >= -1
 YS46X3P1: - X_3 + Y_3_5_1 <= 0
 YS46X5P1: - X_5 + Y_3_5_1 <= 0
 Y3_5: - X_3 - X_5 + Y_3_5_1 >= -1
 YS47X3P1: - X_3 + Y_3_6_1 <= 0
 YS47X6P1: - X_6 + Y_3_6_1 <= 0
 Y3_6: - X_3 - X_6 + Y_3_6_1 >= -1
 YS48X3P1: - X_3 + Y_3_7_1 <= 0
 YS48X7P1: - X_7 + Y_3_7_1 <= 0
 Y3_7: - X_3 - X_7 + Y_3_7_1 >= -1
 YS49X3P1: - X_3 + Y_3_8_1 <= 0
 YS49X8P1: - X_8 + Y_3_8_1 <= 0
 Y3_8: - X_3 - X_8 + Y_3_8_1 >= -1
 YS50X3P1: - X_3 + Y_3_9_1 <= 0
 YS50X9P1: - X_9 + Y_3_9_1 <= 0
 Y3_9: - X_3 - X_9 + Y_3_9_1 >= -1
 YS51X3P1: - X_3 + Y_3_10_1 <= 0
 YS51X10P1: - X_10 + Y_3_10_1 <= 0
 Y3_10: - X_3 - X_10 + Y_3_10_1 >= -1
 YS52X3P1: - X_3 + Y_3_11_1 <= 0
 YS52X11P1: - X_11 + Y_3_11_1 <= 0
 Y3_11: - X_3 - X_11 + Y_3_11_1 >= -1
 YS53X3P1: - X_3 + Y_3_12_1 <= 0
 YS53X12P1: - X_12 + Y_3_12_1 <= 0
 Y3_12: - X_3 - X_12 + Y_3_12_1 >= -1
 YS54X3P1: - X_3 + Y_3_13_1 <= 0
 YS54X13P1: - X_13 + Y_3_13_1 <= 0
 Y3_13: - X_3 - X_13 + Y_3_13_1 >= -1
 YS55X3P1: - X_3 + Y_3_14_1 <= 0
 YS55X14P1: - X_14 + Y_3_14_1 <= 0
 Y3_14: - X_3 - X_14 + Y_3_14_1 >= -1
 YS56X3P1: - X_3 + Y_3_15_1 <= 0
 YS56X15P1: - X_15 + Y_3_15_1 <= 0
 Y3_15: - X_3 - X_15 + Y_3_15_1 >= -1
 YS57X3P1: - X_3 + Y_3_16_1 <= 0
 YS57X16P1: - X_16 + Y_3_16_1 <= 0
 Y3_16: - X_3 - X_16 + Y_3_16_1 >= -1
 YS58X4P1: - X_4 + Y_4_5_1 <= 0
 YS58X5P1: - X_5 + Y_4_5_1 <= 0
 Y4_5: - X_4 - X_5 + Y_4_5_1 >= -1
 YS59X4P1: - X_4 + Y_4_6_1 <= 0
 YS59X6P1: - X_6 + Y_4_6_1 <= 0
 Y4_6: - X_4 - X_6 + Y_4_6_1 >= -1
 YS60X4P1: - X_4 + Y_4_7_1 <= 0
 YS60X7P1: - X_7 + Y_4_7_1 <= 0
 Y4_7: - X_4 - X_7 + Y_4_7_1 >= -1
 YS61X4P1: - X_4 + Y_4_8_1 <= 0
 YS61X8P1: - X_8 + Y_4_8_1 <= 0
 Y4_8: - X_4 - X_8 + Y_4_8_1 >= -1
 YS62X4P1: - X_4 + Y_4_9_1 <= 0
 YS62X9P1: - X_9 + Y_4_9_1 <= 0
 Y4_9: - X_4 - X_9 + Y_4_9_1 >= -1
 YS63X4P1: - X_4 + Y_4_10_1 <= 0
 YS63X10P1: - X_10 + Y_4_10_1 <= 0
 Y4_10: - X_4 - X_10 + Y_4_10_1 >= -1
 YS64X4P1: - X_4 + Y_4_11_1 <= 0
 YS64X11P1: - X_11 + Y_4_11_1 <= 0
 Y4_11: - X_4 - X_11 + Y_4_11_1 >= -1
 YS65X4P1: - X_4 + Y_4_12_1 <= 0
 YS65X12P1: - X_12 + Y_4_12_1 <= 0
 Y4_12: - X_4 - X_12 + Y_4_12_1 >= -1
 YS66X4P1: - X_4 + Y_4_13_1 <= 0
 YS66X13P1: - X_13 + Y_4_13_1 <= 0
 Y4_13: - X_4 - X_13 + Y_4_13_1 >= -1
 YS67X4P1: - X_4 + Y_4_14_1 <= 0
 YS67X14P1: - X_14 + Y_4_14_1 <= 0
 Y4_14: - X_4 - X_14 + Y_4_14_1 >= -1
 YS68X4P1: - X_4 + Y_4_15_1 <= 0
 YS68X15P1: - X_15 + Y_4_15_1 <= 0
 Y4_15: - X_4 - X_15 + Y_4_15_1 >= -1
 YS69X4P1: - X_4 + Y_4_16_1 <= 0
 YS69X16P1: - X_16 + Y_4_16_1 <= 0
 Y4_16: - X_4 - X_16 + Y_4_16_1 >= -1
 YS70X5P1: - X_5 + Y_5_6_1 <= 0
 YS70X6P1: - X_6 + Y_5_6_1 <= 0
 Y5_6: - X_5 - X_6 + Y_5_6_1 >= -1
 YS71X5P1: - X_5 + Y_5_7_1 <= 0
 YS71X7P1: - X_7 + Y_5_7_1 <= 0
 Y5_7: - X_5 - X_7 + Y_5_7_1 >= -1
 YS72X5P1: - X_5 + Y_5_8_1 <= 0
 YS72X8P1: - X_8 + Y_5_8_1 <= 0
 Y5_8: - X_5 - X_8 + Y_5_8_1 >= -1
 YS73X5P1: - X_5 + Y_5_9_1 <= 0
 YS73X9P1: - X_9 + Y_5_9_1 <= 0
 Y5_9: - X_5 - X_9 + Y_5_9_1 >= -1
 YS74X5P1: - X_5 + Y_5_10_1 <= 0
 YS74X10P1: - X_10 + Y_5_10_1 <= 0
 Y5_10: - X_5 - X_10 + Y_5_10_1 >= -1
 YS75X5P1: - X_5 + Y_5_11_1 <= 0
 YS75X11P1: - X_11 + Y_5_11_1 <= 0
 Y5_11: - X_5 - X_11 + Y_5_11_1 >= -1
 YS76X5P1: - X_5 + Y_5_12_1 <= 0
 YS76X12P1: - X_12 + Y_5_12_1 <= 0
 Y5_12: - X_5 - X_12 + Y_5_12_1 >= -1
 YS77X5P1: - X_5 + Y_5_13_1 <= 0
 YS77X13P1: - X_13 + Y_5_13_1 <= 0
 Y5_13: - X_5 - X_13 + Y_5_13_1 >= -1
 YS78X5P1: - X_5 + Y_5_14_1 <= 0
 YS78X14P1: - X_14 + Y_5_14_1 <= 0
 Y5_14: - X_5 - X_14 + Y_5_14_1 >= -1
 YS79X5P1: - X_5 + Y_5_15_1 <= 0
 YS79X15P1: - X_15 + Y_5_15_1 <= 0
 Y5_15: - X_5 - X_15 + Y_5_15_1 >= -1
 YS80X5P1: - X_5 + Y_5_16_1 <= 0
 YS80X16P1: - X_16 + Y_5_16_1 <= 0
 Y5_16: - X_5 - X_16 + Y_5_16_1 >= -1
 YS81X6P1: - X_6 + Y_6_7_1 <= 0
 YS81X7P1: - X_7 + Y_6_7_1 <= 0
 Y6_7: - X_6 - X_7 + Y_6_7_1 >= -1
 YS82X6P1: - X_6 + Y_6_8_1 <= 0
 YS82X8P1: - X_8 + Y_6_8_1 <= 0
 Y6_8: - X_6 - X_8 + Y_6_8_1 >= -1
 YS83X6P1: - X_6 + Y_6_9_1 <= 0
 YS83X9P1: - X_9 + Y_6_9_1 <= 0
 Y6_9: - X_6 - X_9 + Y_6_9_1 >= -1
 YS84X6P1: - X_6 + Y_6_10_1 <= 0
 YS84X10P1: - X_10 + Y_6_10_1 <= 0
 Y6_10: - X_6 - X_10 + Y_6_10_1 >= -1
 YS85X6P1: - X_6 + Y_6_11_1 <= 0
 YS85X11P1: - X_11 + Y_6_11_1 <= 0
 Y6_11: - X_6 - X_11 + Y_6_11_1 >= -1
 YS86X6P1: - X_6 + Y_6_12_1 <= 0
 YS86X12P1: - X_12 + Y_6_12_1 <= 0
 Y6_12: - X_6 - X_12 + Y_6_12_1 >= -1
 YS87X6P1: - X_6 + Y_6_13_1 <= 0
 YS87X13P1: - X_13 + Y_6_13_1 <= 0
 Y6_13: - X_6 - X_13 + Y_6_13_1 >= -1
 YS88X6P1: - X_6 + Y_6_14_1 <= 0
 YS88X14P1: - X_14 + Y_6_14_1 <= 0
 Y6_14: - X_6 - X_14 + Y_6_14_1 >= -1
 YS89X6P1: - X_6 + Y_6_15_1 <= 0
 YS89X15P1: - X_15 + Y_6_15_1 <= 0
 Y6_15: - X_6 - X_15 + Y_6_15_1 >= -1
 YS90X6P1: - X_6 + Y_6_16_1 <= 0
 YS90X16P1: - X_16 + Y_6_16_1 <= 0
 Y6_16: - X_6 - X_16 + Y_6_16_1 >= -1
 YS91X7P1: - X_7 + Y_7_8_1 <= 0
 YS91X8P1: - X_8 + Y_7_8_1 <= 0
 Y7_8: - X_7 - X_8 + Y_7_8_1 >= -1
 YS92X7P1: - X_7 + Y_7_9_1 <= 0
 YS92X9P1: - X_9 + Y_7_9_1 <= 0
 Y7_9: - X_7 - X_9 + Y_7_9_1 >= -1
 YS93X7P1: - X_7 + Y_7_10_1 <= 0
 YS93X10P1: - X_10 + Y_7_10_1 <= 0
 Y7_10: - X_7 - X_10 + Y_7_10_1 >= -1
 YS94X7P1: - X_7 + Y_7_11_1 <= 0
 YS94X11P1: - X_11 + Y_7_11_1 <= 0
 Y7_11: - X_7 - X_11 + Y_7_11_1 >= -1
 YS95X7P1: - X_7 + Y_7_12_1 <= 0
 YS95X12P1: - X_12 + Y_7_12_1 <= 0
 Y7_12: - X_7 - X_12 + Y_7_12_1 >= -1
 YS96X7P1: - X_7 + Y_7_13_1 <= 0
 YS96X13P1: - X_13 + Y_7_13_1 <= 0
 Y7_13: - X_7 - X_13 + Y_7_13_1 >= -1
 YS97X7P1: - X_7 + Y_7_14_1 <= 0
 YS97X14P1: - X_14 + Y_7_14_1 <= 0
 Y7_14: - X_7 - X_14 + Y_7_14_1 >= -1
 YS98X7P1: - X_7 + Y_7_15_1 <= 0
 YS98X15P1: - X_15 + Y_7_15_1 <= 0
 Y7_15: - X_7 - X_15 + Y_7_15_1 >= -1
 YS99X7P1: - X_7 + Y_7_16_1 <= 0
 YS99X16P1: - X_16 + Y_7_16_1 <= 0
 Y7_16: - X_7 - X_16 + Y_7_16_1 >= -1
 YS100X8P1: - X_8 + Y_8_9_1 <= 0
 YS100X9P1: - X_9 + Y_8_9_1 <= 0
 Y8_9: - X_8 - X_9 + Y_8_9_1 >= -1
 YS101X8P1: - X_8 + Y_8_10_1 <= 0
 YS101X10P1: - X_10 + Y_8_10_1 <= 0
 Y8_10: - X_8 - X_10 + Y_8_10_1 >= -1
 YS102X8P1: - X_8 + Y_8_11_1 <= 0
 YS102X11P1: - X_11 + Y_8_11_1 <= 0
 Y8_11: - X_8 - X_11 + Y_8_11_1 >= -1
 YS103X8P1: - X_8 + Y_8_12_1 <= 0
 YS103X12P1: - X_12 + Y_8_12_1 <= 0
 Y8_12: - X_8 - X_12 + Y_8_12_1 >= -1
 YS104X8P1: - X_8 + Y_8_13_1 <= 0
 YS104X13P1: - X_13 + Y_8_13_1 <= 0
 Y8_13: - X_8 - X_13 + Y_8_13_1 >= -1
 YS105X8P1: - X_8 + Y_8_14_1 <= 0
 YS105X14P1: - X_14 + Y_8_14_1 <= 0
 Y8_14: - X_8 - X_14 + Y_8_14_1 >= -1
 YS106X8P1: - X_8 + Y_8_15_1 <= 0
 YS106X15P1: - X_15 + Y_8_15_1 <= 0
 Y8_15: - X_8 - X_15 + Y_8_15_1 >= -1
 YS107X8P1: - X_8 + Y_8_16_1 <= 0
 YS107X16P1: - X_16 + Y_8_16_1 <= 0
 Y8_16: - X_8 - X_16 + Y_8_16_1 >= -1
 YS108X9P1: - X_9 + Y_9_10_1 <= 0
 YS108X10P1: - X_10 + Y_9_10_1 <= 0
 Y9_10: - X_9 - X_10 + Y_9_10_1 >= -1
 YS109X9P1: - X_9 + Y_9_11_1 <= 0
 YS109X11P1: - X_11 + Y_9_11_1 <= 0
 Y9_11: - X_9 - X_11 + Y_9_11_1 >= -1
 YS110X9P1: - X_9 + Y_9_12_1 <= 0
 YS110X12P1: - X_12 + Y_9_12_1 <= 0
 Y9_12: - X_9 - X_12 + Y_9_12_1 >= -1
 YS111X9P1: - X_9 + Y_9_13_1 <= 0
 YS111X13P1: - X_13 + Y_9_13_1 <= 0
 Y9_13: - X_9 - X_13 + Y_9_13_1 >= -1
 YS112X9P1: - X_9 + Y_9_14_1 <= 0
 YS112X14P1: - X_14 + Y_9_14_1 <= 0
 Y9_14: - X_9 - X_14 + Y_9_14_1 >= -1
 YS113X9P1: - X_9 + Y_9_15_1 <= 0
 YS113X15P1: - X_15 + Y_9_15_1 <= 0
 Y9_15: - X_9 - X_15 + Y_9_15_1 >= -1
 YS114X9P1: - X_9 + Y_9_16_1 <= 0
 YS114X16P1: - X_16 + Y_9_16_1 <= 0
 Y9_16: - X_9 - X_16 + Y_9_16_1 >= -1
 YS115X10P1: - X_10 + Y_10_11_1 <= 0
 YS115X11P1: - X_11 + Y_10_11_1 <= 0
 Y10_11: - X_10 - X_11 + Y_10_11_1 >= -1
 YS116X10P1: - X_10 + Y_10_12_1 <= 0
 YS116X12P1: - X_12 + Y_10_12_1 <= 0
 Y10_12: - X_10 - X_12 + Y_10_12_1 >= -1
 YS117X10P1: - X_10 + Y_10_13_1 <= 0
 YS117X13P1: - X_13 + Y_10_13_1 <= 0
 Y10_13: - X_10 - X_13 + Y_10_13_1 >= -1
 YS118X10P1: - X_10 + Y_10_14_1 <= 0
 YS118X14P1: - X_14 + Y_10_14_1 <= 0
 Y10_14: - X_10 - X_14 + Y_10_14_1 >= -1
 YS119X10P1: - X_10 + Y_10_15_1 <= 0
 YS119X15P1: - X_15 + Y_10_15_1 <= 0
 Y10_15: - X_10 - X_15 + Y_10_15_1 >= -1
 YS120X10P1: - X_10 + Y_10_16_1 <= 0
 YS120X16P1: - X_16 + Y_10_16_1 <= 0
 Y10_16: - X_10 - X_16 + Y_10_16_1 >= -1
 YS121X11P1: - X_11 + Y_11_12_1 <= 0
 YS121X12P1: - X_12 + Y_11_12_1 <= 0
 Y11_12: - X_11 - X_12 + Y_11_12_1 >= -1
 YS122X11P1: - X_11 + Y_11_13_1 <= 0
 YS122X13P1: - X_13 + Y_11_13_1 <= 0
 Y11_13: - X_11 - X_13 + Y_11_13_1 >= -1
 YS123X11P1: - X_11 + Y_11_14_1 <= 0
 YS123X14P1: - X_14 + Y_11_14_1 <= 0
 Y11_14: - X_11 - X_14 + Y_11_14_1 >= -1
 YS124X11P1: - X_11 + Y_11_15_1 <= 0
 YS124X15P1: - X_15 + Y_11_15_1 <= 0
 Y11_15: - X_11 - X_15 + Y_11_15_1 >= -1
 YS125X11P1: - X_11 + Y_11_16_1 <= 0
 YS125X16P1: - X_16 + Y_11_16_1 <= 0
 Y11_16: - X_11 - X_16 + Y_11_16_1 >= -1
 YS126X12P1: - X_12 + Y_12_13_1 <= 0
 YS126X13P1: - X_13 + Y_12_13_1 <= 0
 Y12_13: - X_12 - X_13 + Y_12_13_1 >= -1
 YS127X12P1: - X_12 + Y_12_14_1 <= 0
 YS127X14P1: - X_14 + Y_12_14_1 <= 0
 Y12_14: - X_12 - X_14 + Y_12_14_1 >= -1
 YS128X12P1: - X_12 + Y_12_15_1 <= 0
 YS128X15P1: - X_15 + Y_12_15_1 <= 0
 Y12_15: - X_12 - X_15 + Y_12_15_1 >= -1
 YS129X12P1: - X_12 + Y_12_16_1 <= 0
 YS129X16P1: - X_16 + Y_12_16_1 <= 0
 Y12_16: - X_12 - X_16 + Y_12_16_1 >= -1
 YS130X13P1: - X_13 + Y_13_14_1 <= 0
 YS130X14P1: - X_14 + Y_13_14_1 <= 0
 Y13_14: - X_13 - X_14 + Y_13_14_1 >= -1
 YS131X13P1: - X_13 + Y_13_15_1 <= 0
 YS131X15P1: - X_15 + Y_13_15_1 <= 0
 Y13_15: - X_13 - X_15 + Y_13_15_1 >= -1
 YS132X13P1: - X_13 + Y_13_16_1 <= 0
 YS132X16P1: - X_16 + Y_13_16_1 <= 0
 Y13_16: - X_13 - X_16 + Y_13_16_1 >= -1
 YS133X14P1: - X_14 + Y_14_15_1 <= 0
 YS133X15P1: - X_15 + Y_14_15_1 <= 0
 Y14_15: - X_14 - X_15 + Y_14_15_1 >= -1
 YS134X14P1: - X_14 + Y_14_16_1 <= 0
 YS134X16P1: - X_16 + Y_14_16_1 <= 0
 Y14_16: - X_14 - X_16 + Y_14_16_1 >= -1
 YS135X15P1: - X_15 + Y_15_16_1 <= 0
 YS135X16P1: - X_16 + Y_15_16_1 <= 0
 Y15_16: - X_15 - X_16 + Y_15_16_1 >= -1
Bounds
 X_0 <= 1
 X_0 <= 1
 X_1 <= 1
 X_1 <= 1
 X_2 <= 1
 X_2 <= 1
 X_3 <= 1
 X_3 <= 1
 X_4 <= 1
 X_4 <= 1
 X_5 <= 1
 X_5 <= 1
 X_6 <= 1
 X_6 <= 1
 X_7 <= 1
 X_7 <= 1
 X_8 <= 1
 X_8 <= 1
 X_9 <= 1
 X_9 <= 1
 X_10 <= 1
 X_10 <= 1
 X_11 <= 1
 X_11 <= 1
 X_12 <= 1
 X_12 <= 1
 X_13 <= 1
 X_13 <= 1
 X_14 <= 1
 X_14 <= 1
 X_15 <= 1
 X_15 <= 1
 X_16 <= 1
 X_16 <= 1
Binaries
 Y_0_1_0 Y_0_2_0 Y_0_3_0 Y_0_4_0 Y_0_5_0 Y_0_6_0 Y_0_7_0 Y_0_8_0 Y_0_9_0
 Y_0_10_0 Y_0_11_0 Y_0_12_0 Y_0_13_0 Y_0_14_0 Y_0_15_0 Y_0_16_0 Y_1_2_0
 Y_1_3_0 Y_1_4_0 Y_1_5_0 Y_1_6_0 Y_1_7_0 Y_1_8_0 Y_1_9_0 Y_1_10_0 Y_1_11_0
 Y_1_12_0 Y_1_13_0 Y_1_14_0 Y_1_15_0 Y_1_16_0 Y_2_3_0 Y_2_4_0 Y_2_5_0
 Y_2_6_0 Y_2_7_0 Y_2_8_0 Y_2_9_0 Y_2_10_0 Y_2_11_0 Y_2_12_0 Y_2_13_0
 Y_2_14_0 Y_2_15_0 Y_2_16_0 Y_3_4_0 Y_3_5_0 Y_3_6_0 Y_3_7_0 Y_3_8_0 Y_3_9_0
 Y_3_10_0 Y_3_11_0 Y_3_12_0 Y_3_13_0 Y_3_14_0 Y_3_15_0 Y_3_16_0 Y_4_5_0
 Y_4_6_0 Y_4_7_0 Y_4_8_0 Y_4_9_0 Y_4_10_0 Y_4_11_0 Y_4_12_0 Y_4_13_0
 Y_4_14_0 Y_4_15_0 Y_4_16_0 Y_5_6_0 Y_5_7_0 Y_5_8_0 Y_5_9_0 Y_5_10_0
 Y_5_11_0 Y_5_12_0 Y_5_13_0 Y_5_14_0 Y_5_15_0 Y_5_16_0 Y_6_7_0 Y_6_8_0
 Y_6_9_0 Y_6_10_0 Y_6_11_0 Y_6_12_0 Y_6_13_0 Y_6_14_0 Y_6_15_0 Y_6_16_0
 Y_7_8_0 Y_7_9_0 Y_7_10_0 Y_7_11_0 Y_7_12_0 Y_7_13_0 Y_7_14_0 Y_7_15_0
 Y_7_16_0 Y_8_9_0 Y_8_10_0 Y_8_11_0 Y_8_12_0 Y_8_13_0 Y_8_14_0 Y_8_15_0
 Y_8_16_0 Y_9_10_0 Y_9_11_0 Y_9_12_0 Y_9_13_0 Y_9_14_0 Y_9_15_0 Y_9_16_0
 Y_10_11_0 Y_10_12_0 Y_10_13_0 Y_10_14_0 Y_10_15_0 Y_10_16_0 Y_11_12_0
 Y_11_13_0 Y_11_14_0 Y_11_15_0 Y_11_16_0 Y_12_13_0 Y_12_14_0 Y_12_15_0
 Y_12_16_0 Y_13_14_0 Y_13_15_0 Y_13_16_0 Y_14_15_0 Y_14_16_0 Y_15_16_0
 Y_0_1_1 Y_0_2_1 Y_0_3_1 Y_0_4_1 Y_0_5_1 Y_0_6_1 Y_0_7_1 Y_0_8_1 Y_0_9_1
 Y_0_10_1 Y_0_11_1 Y_0_12_1 Y_0_13_1 Y_0_14_1 Y_0_15_1 Y_0_16_1 Y_1_2_1
 Y_1_3_1 Y_1_4_1 Y_1_5_1 Y_1_6_1 Y_1_7_1 Y_1_8_1 Y_1_9_1 Y_1_10_1 Y_1_11_1
 Y_1_12_1 Y_1_13_1 Y_1_14_1 Y_1_15_1 Y_1_16_1 Y_2_3_1 Y_2_4_1 Y_2_5_1
 Y_2_6_1 Y_2_7_1 Y_2_8_1 Y_2_9_1 Y_2_10_1 Y_2_11_1 Y_2_12_1 Y_2_13_1
 Y_2_14_1 Y_2_15_1 Y_2_16_1 Y_3_4_1 Y_3_5_1 Y_3_6_1 Y_3_7_1 Y_3_8_1 Y_3_9_1
 Y_3_10_1 Y_3_11_1 Y_3_12_1 Y_3_13_1 Y_3_14_1 Y_3_15_1 Y_3_16_1 Y_4_5_1
 Y_4_6_1 Y_4_7_1 Y_4_8_1 Y_4_9_1 Y_4_10_1 Y_4_11_1 Y_4_12_1 Y_4_13_1
 Y_4_14_1 Y_4_15_1 Y_4_16_1 Y_5_6_1 Y_5_7_1 Y_5_8_1 Y_5_9_1 Y_5_10_1
 Y_5_11_1 Y_5_12_1 Y_5_13_1 Y_5_14_1 Y_5_15_1 Y_5_16_1 Y_6_7_1 Y_6_8_1
 Y_6_9_1 Y_6_10_1 Y_6_11_1 Y_6_12_1 Y_6_13_1 Y_6_14_1 Y_6_15_1 Y_6_16_1
 Y_7_8_1 Y_7_9_1 Y_7_10_1 Y_7_11_1 Y_7_12_1 Y_7_13_1 Y_7_14_1 Y_7_15_1
 Y_7_16_1 Y_8_9_1 Y_8_10_1 Y_8_11_1 Y_8_12_1 Y_8_13_1 Y_8_14_1 Y_8_15_1
 Y_8_16_1 Y_9_10_1 Y_9_11_1 Y_9_12_1 Y_9_13_1 Y_9_14_1 Y_9_15_1 Y_9_16_1
 Y_10_11_1 Y_10_12_1 Y_10_13_1 Y_10_14_1 Y_10_15_1 Y_10_16_1 Y_11_12_1
 Y_11_13_1 Y_11_14_1 Y_11_15_1 Y_11_16_1 Y_12_13_1 Y_12_14_1 Y_12_15_1
 Y_12_16_1 Y_13_14_1 Y_13_15_1 Y_13_16_1 Y_14_15_1 Y_14_16_1 Y_15_16_1
End
